p td 22 207
2 1
3 1
3 2
4 3
4 1
4 2
5 1
5 3
6 4
6 2
6 1
6 5
7 1
7 4
7 6
7 3
7 5
8 3
8 6
8 2
8 1
8 5
8 4
8 7
9 8
9 4
9 5
9 2
9 3
9 1
9 7
10 2
10 1
10 6
10 7
10 3
10 8
10 9
10 4
10 5
11 4
11 7
11 6
11 5
11 9
11 8
11 1
11 3
12 10
12 6
12 9
12 8
12 5
12 1
12 3
12 7
12 2
13 5
13 2
13 11
13 10
13 12
13 4
13 3
13 6
13 7
13 1
13 8
14 3
14 6
14 2
14 9
14 8
14 4
14 5
14 7
14 12
14 1
14 13
14 11
15 14
15 2
15 11
15 12
15 7
15 13
15 8
15 6
15 9
15 1
15 4
15 5
15 10
15 3
16 14
16 12
16 13
16 4
16 1
16 6
16 8
16 9
16 10
16 2
16 15
16 7
16 5
16 11
16 3
17 13
17 11
17 1
17 6
17 14
17 7
17 9
17 3
17 15
17 2
17 8
17 5
18 2
18 1
18 9
18 8
18 10
18 3
18 16
18 6
18 12
18 4
18 17
18 7
18 14
18 11
18 13
18 5
18 15
19 12
19 7
19 16
19 15
19 11
19 13
19 5
19 18
19 10
19 8
19 1
19 14
19 2
19 6
19 4
19 17
19 3
20 9
20 7
20 11
20 12
20 4
20 17
20 1
20 14
20 8
20 18
20 5
20 16
20 3
20 15
20 2
20 6
20 19
21 11
21 1
21 6
21 14
21 3
21 5
21 18
21 2
21 15
21 20
21 16
21 10
21 4
21 17
21 9
21 19
21 8
22 8
22 12
22 7
22 4
22 13
22 9
22 6
22 19
22 17
22 15
22 21
22 10
22 14
22 1
22 5
22 20
22 11
22 16
